HUN,8,6,230
0,22,1,29,3,21,2,10,5,15,4,25
2,15,0,9,3,30,5,28,4,20,1,9
5,25,2,18,0,26,3,1,4,20,1,14
5,3,0,2,4,1,1,14,3,2,2,5
3,10,5,23,2,25,0,23,1,12,4,16
1,26,5,8,3,22,4,11,2,11,0,1
3,8,2,26,5,3,0,11,1,15,4,10
0,14,1,29,3,30,2,10,4,29,5,20
